NAME : in_house_9_1
TYPE : TSP
DIMENSION : 9
EDGE_WEIGHT_TYPE : EXPLICIT
EDGE_WEIGHT_FORMAT : UPPER_ROW
COMMENT : INVERSION_SHIFT=9
EDGE_WEIGHT_SECTION
40
24
62
55
18
13
55
25
43
57
4
27
46
70
10
46
30
69
50
71
26
54
37
40
12
53
35
58
46
46
19
54
45
64
60
15
